-161 -181 0
-9 -177 -21 0
-179 161 0
-181 0
161 0
-21 0
1 0
41 0
-141 0
-61 0
11 0
-81 0
-31 0
-91 0
-121 0
6 0
16 0
171 0
-51 0
-26 0
-56 0
-86 0
-111 0
-116 0
-36 0
-66 0
-96 0
-126 0
-151 0
166 0
176 0
-146 0
-156 0
179 0
-159 0
-99 0
-129 0
-69 0
19 0
14 0
9 0
4 0
-134 0
-137 0
-139 0
-144 0
-39 0
-87 0
-147 0
-23 0
-33 0
-38 0
-169 0
-43 0
-48 0
-104 0
-107 0
-109 0
-34 0
-64 0
-82 0
-94 0
-112 0
-124 0
-142 0
-114 0
-117 0
-63 0
-68 0
-73 0
-78 0
-29 0
-3 0
-77 0
-93 0
-98 0
-103 0
-108 0
-89 0
-79 0
-74 0
-59 0
-119 0
-84 0
-24 0
-42 0
-54 0
-72 0
-102 0
-132 0
-44 0
-47 0
-49 0
-52 0
-57 0
-123 0
-128 0
-133 0
-138 0
0
